(set-info :source  loris-7.ddns.comp.nus.edu.sg/~project/hip/) 
;Variables declarations
(declare-fun q_2947 () Int)
(declare-fun Anon_2946 () Int)
(declare-fun Anon_2931 () Int)
(declare-fun n () Int)
(declare-fun v_bool_424_1457_primed () Int)
(declare-fun ys_2938 () Int)
(declare-fun ys () Int)
(declare-fun xs () Int)
(declare-fun next_428_2937 () Int)
(declare-fun q_2932 () Int)
(declare-fun m () Int)
(declare-fun xs_2939 () Int)
(declare-fun flted_14_2930 () Int)
(declare-fun xs_primed () Int)
(declare-fun n_2940 () Int)
(declare-fun m_2941 () Int)
(declare-fun flted_191_2955 () Int)
(declare-fun ys_primed () Int)
;Relations declarations
;Axioms assertions
;Antecedent
(assert (= (+ m 1) m_2941))
(assert (= q_2947 ys_2938))
(assert (= Anon_2946 Anon_2931))
(assert (= (+ flted_14_2930 1) n))
(assert (> v_bool_424_1457_primed 0))
(assert (= ys_2938 ys))
(assert (= xs_2939 xs))
(assert (= next_428_2937 q_2932))
(assert (= n_2940 flted_14_2930))
(assert (<= 0 m))
(assert (> xs_2939 0))
(assert (<= 0 flted_14_2930))
(assert (= flted_191_2955 (+ m_2941 n_2940)))
(assert (< xs_primed 1))
(assert (<= 0 n_2940))
(assert (<= 0 m_2941))
(assert (or (and (< ys_primed 1) (= flted_191_2955 0)) (and (<= 1 flted_191_2955) (> ys_primed 0))))
;Negation of Consequence
(assert (not false))
(check-sat)